c description: Random 5-CNF over 15 variables and 15 clauses
c generator: CNFgen (0.9.0)
c copyright: (C) 2012-2020 Massimo Lauria <massimo.lauria@uniroma1.it>
c url: https://massimolauria.net/cnfgen
c
p cnf 15 15
-1 -2 3 -9 13 0
-1 6 -9 -11 -12 0
-1 -2 -9 11 -13 0
-4 -8 -9 -12 13 0
-7 9 13 14 -15 0
-1 2 10 14 -15 0
5 -9 12 13 -14 0
-4 -5 9 -12 -14 0
-3 7 8 -13 15 0
-1 -2 5 8 -10 0
-6 8 -9 -12 -13 0
-1 -6 9 -10 13 0
2 5 -6 7 15 0
-2 4 -7 8 9 0
5 -9 -10 12 -14 0